320170279157054238501,3,1,2,08,5,1,2,012,3,1,2,012,12,1,2,02,11,1,2,08,5,1,2,03,12,1,2,09,4,1,2,011,1,1,2,05,13,1,2,02,8,1,2,05,11,1,2,06,1,1,2,08,15,1,2,02,6,1,2,08,10,1,2,014,12,1,2,011,12,1,2,07,8,1,2,06,7,1,2,013,2,1,2,013,14,1,2,015,3,1,2,06,3,1,2,06,12,1,2,04,13,1,2,03,14,1,2,013,15,1,2,02,3,1,2,03,15,1,2,04,3,1,2,05,7,1,2,03,12,1,2,07,15,1,2,05,7,1,2,04,2,1,2,02,9,1,2,08,9,1,2,015,3,1,2,09,2,1,2,011,6,1,2,011,2,1,2,06,3,1,2,015,2,1,2,010,11,1,2,012,8,1,2,01,14,1,2,05,13,1,2,05,3,1,2,06,8,1,2,0